p cnf 10 40
10 -4 8 0
10 -5 8 0
1 -4 -2 0
3 -10 1 0
5 4 3 0
2 7 4 0
-10 7 4 0
6 7 1 0
6 4 3 0
7 1 9 0
3 7 -2 0
7 -10 1 0
8 1 4 0
1 9 8 0
6 3 -5 0
7 5 -10 0
-10 9 7 0
3 -5 -6 0
-1 7 -10 0
1 -2 -10 0
8 10 9 0
4 -10 9 0
4 8 3 0
8 3 -6 0
3 7 4 0
6 -2 7 0
8 3 6 0
-2 -3 -5 0
6 7 3 0
8 3 5 0
-7 8 -10 0
6 7 1 0
1 6 -10 0
-9 1 4 0
9 8 -10 0
9 6 -5 0
4 6 -10 0
9 3 -2 0
7 8 2 0
8 -9 6 0
%
0